\ LP format - for model browsing. Use MPS format to capture full model detail.
Minimize
 [ 2 Sum[0] ^2 + 2 Sum[1] ^2 + 2 Sum[2] ^2 + 2 Sum[3] ^2 ] / 2 
Subject To
 c0_104: x[104,0] + x[104,1] + x[104,2] + x[104,3] = 1
 c0_49: x[49,0] + x[49,1] + x[49,2] + x[49,3] = 1
 c0_58: x[58,0] + x[58,1] + x[58,2] + x[58,3] = 1
 c0_103: x[103,0] + x[103,1] + x[103,2] + x[103,3] = 1
 c0_137: x[137,0] + x[137,1] + x[137,2] + x[137,3] = 1
 c0_132: x[132,0] + x[132,1] + x[132,2] + x[132,3] = 1
 c0_55: x[55,0] + x[55,1] + x[55,2] + x[55,3] = 1
 c0_89: x[89,0] + x[89,1] + x[89,2] + x[89,3] = 1
 c0_140: x[140,0] + x[140,1] + x[140,2] + x[140,3] = 1
 c0_113: x[113,0] + x[113,1] + x[113,2] + x[113,3] = 1
 c0_101: x[101,0] + x[101,1] + x[101,2] + x[101,3] = 1
 c0_53: x[53,0] + x[53,1] + x[53,2] + x[53,3] = 1
 c0_83: x[83,0] + x[83,1] + x[83,2] + x[83,3] = 1
 c0_26: x[26,0] + x[26,1] + x[26,2] + x[26,3] = 1
 c0_134: x[134,0] + x[134,1] + x[134,2] + x[134,3] = 1
 c0_5: x[5,0] + x[5,1] + x[5,2] + x[5,3] = 1
 c0_44: x[44,0] + x[44,1] + x[44,2] + x[44,3] = 1
 c0_84: x[84,0] + x[84,1] + x[84,2] + x[84,3] = 1
 c0_52: x[52,0] + x[52,1] + x[52,2] + x[52,3] = 1
 c0_119: x[119,0] + x[119,1] + x[119,2] + x[119,3] = 1
 c0_34: x[34,0] + x[34,1] + x[34,2] + x[34,3] = 1
 c0_45: x[45,0] + x[45,1] + x[45,2] + x[45,3] = 1
 c0_130: x[130,0] + x[130,1] + x[130,2] + x[130,3] = 1
 c0_127: x[127,0] + x[127,1] + x[127,2] + x[127,3] = 1
 c0_35: x[35,0] + x[35,1] + x[35,2] + x[35,3] = 1
 c0_0: x[0,0] + x[0,1] + x[0,2] + x[0,3] = 1
 c0_25: x[25,0] + x[25,1] + x[25,2] + x[25,3] = 1
 c0_67: x[67,0] + x[67,1] + x[67,2] + x[67,3] = 1
 c0_11: x[11,0] + x[11,1] + x[11,2] + x[11,3] = 1
 c0_15: x[15,0] + x[15,1] + x[15,2] + x[15,3] = 1
 c0_59: x[59,0] + x[59,1] + x[59,2] + x[59,3] = 1
 c0_86: x[86,0] + x[86,1] + x[86,2] + x[86,3] = 1
 c0_99: x[99,0] + x[99,1] + x[99,2] + x[99,3] = 1
 c0_74: x[74,0] + x[74,1] + x[74,2] + x[74,3] = 1
 c0_65: x[65,0] + x[65,1] + x[65,2] + x[65,3] = 1
 c0_14: x[14,0] + x[14,1] + x[14,2] + x[14,3] = 1
 c0_85: x[85,0] + x[85,1] + x[85,2] + x[85,3] = 1
 c0_87: x[87,0] + x[87,1] + x[87,2] + x[87,3] = 1
 c0_56: x[56,0] + x[56,1] + x[56,2] + x[56,3] = 1
 c0_141: x[141,0] + x[141,1] + x[141,2] + x[141,3] = 1
 c0_4: x[4,0] + x[4,1] + x[4,2] + x[4,3] = 1
 c0_107: x[107,0] + x[107,1] + x[107,2] + x[107,3] = 1
 c0_136: x[136,0] + x[136,1] + x[136,2] + x[136,3] = 1
 c0_29: x[29,0] + x[29,1] + x[29,2] + x[29,3] = 1
 c0_126: x[126,0] + x[126,1] + x[126,2] + x[126,3] = 1
 c0_112: x[112,0] + x[112,1] + x[112,2] + x[112,3] = 1
 c0_66: x[66,0] + x[66,1] + x[66,2] + x[66,3] = 1
 c0_125: x[125,0] + x[125,1] + x[125,2] + x[125,3] = 1
 c0_9: x[9,0] + x[9,1] + x[9,2] + x[9,3] = 1
 c0_68: x[68,0] + x[68,1] + x[68,2] + x[68,3] = 1
 c0_91: x[91,0] + x[91,1] + x[91,2] + x[91,3] = 1
 c0_71: x[71,0] + x[71,1] + x[71,2] + x[71,3] = 1
 c0_43: x[43,0] + x[43,1] + x[43,2] + x[43,3] = 1
 c0_94: x[94,0] + x[94,1] + x[94,2] + x[94,3] = 1
 c0_117: x[117,0] + x[117,1] + x[117,2] + x[117,3] = 1
 c0_60: x[60,0] + x[60,1] + x[60,2] + x[60,3] = 1
 c0_42: x[42,0] + x[42,1] + x[42,2] + x[42,3] = 1
 c0_41: x[41,0] + x[41,1] + x[41,2] + x[41,3] = 1
 c0_1: x[1,0] + x[1,1] + x[1,2] + x[1,3] = 1
 c0_39: x[39,0] + x[39,1] + x[39,2] + x[39,3] = 1
 c0_77: x[77,0] + x[77,1] + x[77,2] + x[77,3] = 1
 c0_78: x[78,0] + x[78,1] + x[78,2] + x[78,3] = 1
 c0_98: x[98,0] + x[98,1] + x[98,2] + x[98,3] = 1
 c0_69: x[69,0] + x[69,1] + x[69,2] + x[69,3] = 1
 c0_120: x[120,0] + x[120,1] + x[120,2] + x[120,3] = 1
 c0_81: x[81,0] + x[81,1] + x[81,2] + x[81,3] = 1
 c0_96: x[96,0] + x[96,1] + x[96,2] + x[96,3] = 1
 c0_62: x[62,0] + x[62,1] + x[62,2] + x[62,3] = 1
 c0_114: x[114,0] + x[114,1] + x[114,2] + x[114,3] = 1
 c0_93: x[93,0] + x[93,1] + x[93,2] + x[93,3] = 1
 c0_18: x[18,0] + x[18,1] + x[18,2] + x[18,3] = 1
 c0_139: x[139,0] + x[139,1] + x[139,2] + x[139,3] = 1
 c0_19: x[19,0] + x[19,1] + x[19,2] + x[19,3] = 1
 c0_115: x[115,0] + x[115,1] + x[115,2] + x[115,3] = 1
 c0_7: x[7,0] + x[7,1] + x[7,2] + x[7,3] = 1
 c0_110: x[110,0] + x[110,1] + x[110,2] + x[110,3] = 1
 c0_37: x[37,0] + x[37,1] + x[37,2] + x[37,3] = 1
 c0_61: x[61,0] + x[61,1] + x[61,2] + x[61,3] = 1
 c0_121: x[121,0] + x[121,1] + x[121,2] + x[121,3] = 1
 c0_16: x[16,0] + x[16,1] + x[16,2] + x[16,3] = 1
 c0_64: x[64,0] + x[64,1] + x[64,2] + x[64,3] = 1
 c0_111: x[111,0] + x[111,1] + x[111,2] + x[111,3] = 1
 c0_129: x[129,0] + x[129,1] + x[129,2] + x[129,3] = 1
 c0_95: x[95,0] + x[95,1] + x[95,2] + x[95,3] = 1
 c0_6: x[6,0] + x[6,1] + x[6,2] + x[6,3] = 1
 c0_116: x[116,0] + x[116,1] + x[116,2] + x[116,3] = 1
 c0_17: x[17,0] + x[17,1] + x[17,2] + x[17,3] = 1
 c0_21: x[21,0] + x[21,1] + x[21,2] + x[21,3] = 1
 c0_92: x[92,0] + x[92,1] + x[92,2] + x[92,3] = 1
 c0_36: x[36,0] + x[36,1] + x[36,2] + x[36,3] = 1
 c0_80: x[80,0] + x[80,1] + x[80,2] + x[80,3] = 1
 c0_82: x[82,0] + x[82,1] + x[82,2] + x[82,3] = 1
 c0_128: x[128,0] + x[128,1] + x[128,2] + x[128,3] = 1
 c0_122: x[122,0] + x[122,1] + x[122,2] + x[122,3] = 1
 c0_100: x[100,0] + x[100,1] + x[100,2] + x[100,3] = 1
 c0_123: x[123,0] + x[123,1] + x[123,2] + x[123,3] = 1
 c0_75: x[75,0] + x[75,1] + x[75,2] + x[75,3] = 1
 c0_106: x[106,0] + x[106,1] + x[106,2] + x[106,3] = 1
 c0_51: x[51,0] + x[51,1] + x[51,2] + x[51,3] = 1
 c0_88: x[88,0] + x[88,1] + x[88,2] + x[88,3] = 1
 c0_109: x[109,0] + x[109,1] + x[109,2] + x[109,3] = 1
 c0_142: x[142,0] + x[142,1] + x[142,2] + x[142,3] = 1
 c0_46: x[46,0] + x[46,1] + x[46,2] + x[46,3] = 1
 c0_2: x[2,0] + x[2,1] + x[2,2] + x[2,3] = 1
 c0_8: x[8,0] + x[8,1] + x[8,2] + x[8,3] = 1
 c0_135: x[135,0] + x[135,1] + x[135,2] + x[135,3] = 1
 c0_48: x[48,0] + x[48,1] + x[48,2] + x[48,3] = 1
 c0_108: x[108,0] + x[108,1] + x[108,2] + x[108,3] = 1
 c0_79: x[79,0] + x[79,1] + x[79,2] + x[79,3] = 1
 c0_73: x[73,0] + x[73,1] + x[73,2] + x[73,3] = 1
 c0_20: x[20,0] + x[20,1] + x[20,2] + x[20,3] = 1
 c0_54: x[54,0] + x[54,1] + x[54,2] + x[54,3] = 1
 c0_131: x[131,0] + x[131,1] + x[131,2] + x[131,3] = 1
 c0_124: x[124,0] + x[124,1] + x[124,2] + x[124,3] = 1
 c0_47: x[47,0] + x[47,1] + x[47,2] + x[47,3] = 1
 c0_13: x[13,0] + x[13,1] + x[13,2] + x[13,3] = 1
 c0_24: x[24,0] + x[24,1] + x[24,2] + x[24,3] = 1
 c0_40: x[40,0] + x[40,1] + x[40,2] + x[40,3] = 1
 c0_22: x[22,0] + x[22,1] + x[22,2] + x[22,3] = 1
 c0_33: x[33,0] + x[33,1] + x[33,2] + x[33,3] = 1
 c0_28: x[28,0] + x[28,1] + x[28,2] + x[28,3] = 1
 c0_3: x[3,0] + x[3,1] + x[3,2] + x[3,3] = 1
 c0_70: x[70,0] + x[70,1] + x[70,2] + x[70,3] = 1
 c0_12: x[12,0] + x[12,1] + x[12,2] + x[12,3] = 1
 c0_30: x[30,0] + x[30,1] + x[30,2] + x[30,3] = 1
 c0_63: x[63,0] + x[63,1] + x[63,2] + x[63,3] = 1
 c0_72: x[72,0] + x[72,1] + x[72,2] + x[72,3] = 1
 c0_76: x[76,0] + x[76,1] + x[76,2] + x[76,3] = 1
 c0_102: x[102,0] + x[102,1] + x[102,2] + x[102,3] = 1
 c0_38: x[38,0] + x[38,1] + x[38,2] + x[38,3] = 1
 c0_118: x[118,0] + x[118,1] + x[118,2] + x[118,3] = 1
 c0_97: x[97,0] + x[97,1] + x[97,2] + x[97,3] = 1
 c0_23: x[23,0] + x[23,1] + x[23,2] + x[23,3] = 1
 c0_27: x[27,0] + x[27,1] + x[27,2] + x[27,3] = 1
 c0_133: x[133,0] + x[133,1] + x[133,2] + x[133,3] = 1
 c0_138: x[138,0] + x[138,1] + x[138,2] + x[138,3] = 1
 c0_90: x[90,0] + x[90,1] + x[90,2] + x[90,3] = 1
 c0_50: x[50,0] + x[50,1] + x[50,2] + x[50,3] = 1
 c0_32: x[32,0] + x[32,1] + x[32,2] + x[32,3] = 1
 c0_105: x[105,0] + x[105,1] + x[105,2] + x[105,3] = 1
 c0_57: x[57,0] + x[57,1] + x[57,2] + x[57,3] = 1
 c0_10: x[10,0] + x[10,1] + x[10,2] + x[10,3] = 1
 c0_31: x[31,0] + x[31,1] + x[31,2] + x[31,3] = 1
 c1_0: - 0.056 x[104,0] - 0.016 x[49,0] - 0.032 x[58,0] - 0.074 x[103,0]
   - 0.078 x[137,0] - 0.191 x[132,0] - 0.107 x[55,0] - 0.015 x[89,0]
   - 0.304 x[140,0] - 0.207 x[113,0] - 0.372 x[101,0] - 0.096 x[53,0]
   - 0.016 x[83,0] - 0.058 x[26,0] - 0.091 x[134,0] - 0.062 x[44,0]
   - 0.244 x[84,0] - 0.221 x[52,0] - 0.365 x[119,0] - 0.074 x[34,0]
   - 0.811 x[45,0] - 0.03 x[130,0] - 0.077 x[127,0] - 0.075 x[35,0]
   - 0.085 x[25,0] - 0.388 x[67,0] - 0.081 x[11,0] - 0.038 x[15,0]
   - 0.037 x[59,0] - 0.047 x[86,0] - 0.069 x[99,0] - 0.877 x[74,0]
   - 0.032 x[65,0] - 0.984 x[14,0] - 0.096 x[85,0] - 0.058 x[87,0]
   - 0.216 x[56,0] - 0.033 x[141,0] - 0.13 x[107,0] - 0.045 x[136,0]
   - 0.063 x[29,0] - 0.015 x[126,0] - 0.073 x[112,0] - 0.061 x[66,0]
   - 0.084 x[125,0] - 0.419 x[9,0] - 0.078 x[68,0] - 0.196 x[91,0]
   - 0.032 x[71,0] - 0.096 x[43,0] - 0.016 x[94,0] - 0.072 x[117,0]
   - 0.229 x[60,0] - 0.04 x[42,0] - 0.015 x[41,0] - 0.096 x[39,0]
   - 0.241 x[77,0] - 0.053 x[78,0] - 0.082 x[98,0] - 0.077 x[69,0]
   - 0.086 x[120,0] - 0.09 x[81,0] - 0.047 x[96,0] - 0.226 x[62,0]
   - 0.016 x[114,0] - 0.629 x[93,0] - 0.048 x[18,0] - 0.115 x[139,0]
   - 0.035 x[19,0] - 0.08 x[115,0] - 0.099 x[110,0] - 0.054 x[37,0]
   - 0.492 x[61,0] - 0.611 x[121,0] - 0.049 x[16,0] - 0.011 x[64,0]
   - 0.099 x[111,0] - 0.063 x[129,0] - 0.013 x[95,0] - 0.099 x[116,0]
   - 0.054 x[17,0] - 0.076 x[21,0] - 0.03 x[92,0] - 0.092 x[36,0]
   - 0.044 x[80,0] - 0.11 x[82,0] - 0.1 x[128,0] - 0.068 x[122,0]
   - 0.054 x[100,0] - 0.38 x[123,0] - 0.106 x[75,0] - 0.067 x[106,0]
   - 0.271 x[51,0] - 0.239 x[88,0] - 0.386 x[109,0] - 0.013 x[142,0]
   - 0.091 x[46,0] - 0.142 x[8,0] - 0.486 x[135,0] - 0.418 x[48,0]
   - 0.01 x[108,0] - 0.164 x[79,0] - 0.251 x[73,0] - 0.093 x[20,0]
   - 0.029 x[54,0] - 0.018 x[131,0] - 0.075 x[124,0] - 0.044 x[47,0]
   - 0.072 x[13,0] - 0.065 x[24,0] - 0.061 x[40,0] - 0.122 x[22,0]
   - 0.064 x[33,0] - 0.315 x[28,0] - 0.079 x[70,0] - 0.064 x[12,0]
   - 0.068 x[30,0] - 0.046 x[63,0] - 0.454 x[72,0] - 0.094 x[76,0]
   - 0.029 x[102,0] - 0.2 x[38,0] - 0.447 x[118,0] - 0.06 x[97,0]
   - 0.047 x[23,0] - 0.08 x[27,0] - 0.237 x[133,0] - 0.085 x[138,0]
   - 0.071 x[90,0] - 0.019 x[50,0] - 0.156 x[32,0] - 0.014 x[105,0]
   - 0.017 x[57,0] - 0.04 x[10,0] - 0.162 x[31,0] + Sum[0] = 0
 c1_1: - 0.056 x[104,1] - 0.016 x[49,1] - 0.032 x[58,1] - 0.074 x[103,1]
   - 0.078 x[137,1] - 0.191 x[132,1] - 0.107 x[55,1] - 0.015 x[89,1]
   - 0.304 x[140,1] - 0.207 x[113,1] - 0.372 x[101,1] - 0.096 x[53,1]
   - 0.016 x[83,1] - 0.058 x[26,1] - 0.091 x[134,1] - 0.062 x[44,1]
   - 0.244 x[84,1] - 0.221 x[52,1] - 0.365 x[119,1] - 0.074 x[34,1]
   - 0.811 x[45,1] - 0.03 x[130,1] - 0.077 x[127,1] - 0.075 x[35,1]
   - 0.085 x[25,1] - 0.388 x[67,1] - 0.081 x[11,1] - 0.038 x[15,1]
   - 0.037 x[59,1] - 0.047 x[86,1] - 0.069 x[99,1] - 0.877 x[74,1]
   - 0.032 x[65,1] - 0.984 x[14,1] - 0.096 x[85,1] - 0.058 x[87,1]
   - 0.216 x[56,1] - 0.033 x[141,1] - 0.13 x[107,1] - 0.045 x[136,1]
   - 0.063 x[29,1] - 0.015 x[126,1] - 0.073 x[112,1] - 0.061 x[66,1]
   - 0.084 x[125,1] - 0.419 x[9,1] - 0.078 x[68,1] - 0.196 x[91,1]
   - 0.032 x[71,1] - 0.096 x[43,1] - 0.016 x[94,1] - 0.072 x[117,1]
   - 0.229 x[60,1] - 0.04 x[42,1] - 0.015 x[41,1] - 0.096 x[39,1]
   - 0.241 x[77,1] - 0.053 x[78,1] - 0.082 x[98,1] - 0.077 x[69,1]
   - 0.086 x[120,1] - 0.09 x[81,1] - 0.047 x[96,1] - 0.226 x[62,1]
   - 0.016 x[114,1] - 0.629 x[93,1] - 0.048 x[18,1] - 0.115 x[139,1]
   - 0.035 x[19,1] - 0.08 x[115,1] - 0.099 x[110,1] - 0.054 x[37,1]
   - 0.492 x[61,1] - 0.611 x[121,1] - 0.049 x[16,1] - 0.011 x[64,1]
   - 0.099 x[111,1] - 0.063 x[129,1] - 0.013 x[95,1] - 0.099 x[116,1]
   - 0.054 x[17,1] - 0.076 x[21,1] - 0.03 x[92,1] - 0.092 x[36,1]
   - 0.044 x[80,1] - 0.11 x[82,1] - 0.1 x[128,1] - 0.068 x[122,1]
   - 0.054 x[100,1] - 0.38 x[123,1] - 0.106 x[75,1] - 0.067 x[106,1]
   - 0.271 x[51,1] - 0.239 x[88,1] - 0.386 x[109,1] - 0.013 x[142,1]
   - 0.091 x[46,1] - 0.142 x[8,1] - 0.486 x[135,1] - 0.418 x[48,1]
   - 0.01 x[108,1] - 0.164 x[79,1] - 0.251 x[73,1] - 0.093 x[20,1]
   - 0.029 x[54,1] - 0.018 x[131,1] - 0.075 x[124,1] - 0.044 x[47,1]
   - 0.072 x[13,1] - 0.065 x[24,1] - 0.061 x[40,1] - 0.122 x[22,1]
   - 0.064 x[33,1] - 0.315 x[28,1] - 0.079 x[70,1] - 0.064 x[12,1]
   - 0.068 x[30,1] - 0.046 x[63,1] - 0.454 x[72,1] - 0.094 x[76,1]
   - 0.029 x[102,1] - 0.2 x[38,1] - 0.447 x[118,1] - 0.06 x[97,1]
   - 0.047 x[23,1] - 0.08 x[27,1] - 0.237 x[133,1] - 0.085 x[138,1]
   - 0.071 x[90,1] - 0.019 x[50,1] - 0.156 x[32,1] - 0.014 x[105,1]
   - 0.017 x[57,1] - 0.04 x[10,1] - 0.162 x[31,1] + Sum[1] = 0
 c1_2: - 0.056 x[104,2] - 0.016 x[49,2] - 0.032 x[58,2] - 0.074 x[103,2]
   - 0.078 x[137,2] - 0.191 x[132,2] - 0.107 x[55,2] - 0.015 x[89,2]
   - 0.304 x[140,2] - 0.207 x[113,2] - 0.372 x[101,2] - 0.096 x[53,2]
   - 0.016 x[83,2] - 0.058 x[26,2] - 0.091 x[134,2] - 0.062 x[44,2]
   - 0.244 x[84,2] - 0.221 x[52,2] - 0.365 x[119,2] - 0.074 x[34,2]
   - 0.811 x[45,2] - 0.03 x[130,2] - 0.077 x[127,2] - 0.075 x[35,2]
   - 0.085 x[25,2] - 0.388 x[67,2] - 0.081 x[11,2] - 0.038 x[15,2]
   - 0.037 x[59,2] - 0.047 x[86,2] - 0.069 x[99,2] - 0.877 x[74,2]
   - 0.032 x[65,2] - 0.984 x[14,2] - 0.096 x[85,2] - 0.058 x[87,2]
   - 0.216 x[56,2] - 0.033 x[141,2] - 0.13 x[107,2] - 0.045 x[136,2]
   - 0.063 x[29,2] - 0.015 x[126,2] - 0.073 x[112,2] - 0.061 x[66,2]
   - 0.084 x[125,2] - 0.419 x[9,2] - 0.078 x[68,2] - 0.196 x[91,2]
   - 0.032 x[71,2] - 0.096 x[43,2] - 0.016 x[94,2] - 0.072 x[117,2]
   - 0.229 x[60,2] - 0.04 x[42,2] - 0.015 x[41,2] - 0.096 x[39,2]
   - 0.241 x[77,2] - 0.053 x[78,2] - 0.082 x[98,2] - 0.077 x[69,2]
   - 0.086 x[120,2] - 0.09 x[81,2] - 0.047 x[96,2] - 0.226 x[62,2]
   - 0.016 x[114,2] - 0.629 x[93,2] - 0.048 x[18,2] - 0.115 x[139,2]
   - 0.035 x[19,2] - 0.08 x[115,2] - 0.099 x[110,2] - 0.054 x[37,2]
   - 0.492 x[61,2] - 0.611 x[121,2] - 0.049 x[16,2] - 0.011 x[64,2]
   - 0.099 x[111,2] - 0.063 x[129,2] - 0.013 x[95,2] - 0.099 x[116,2]
   - 0.054 x[17,2] - 0.076 x[21,2] - 0.03 x[92,2] - 0.092 x[36,2]
   - 0.044 x[80,2] - 0.11 x[82,2] - 0.1 x[128,2] - 0.068 x[122,2]
   - 0.054 x[100,2] - 0.38 x[123,2] - 0.106 x[75,2] - 0.067 x[106,2]
   - 0.271 x[51,2] - 0.239 x[88,2] - 0.386 x[109,2] - 0.013 x[142,2]
   - 0.091 x[46,2] - 0.142 x[8,2] - 0.486 x[135,2] - 0.418 x[48,2]
   - 0.01 x[108,2] - 0.164 x[79,2] - 0.251 x[73,2] - 0.093 x[20,2]
   - 0.029 x[54,2] - 0.018 x[131,2] - 0.075 x[124,2] - 0.044 x[47,2]
   - 0.072 x[13,2] - 0.065 x[24,2] - 0.061 x[40,2] - 0.122 x[22,2]
   - 0.064 x[33,2] - 0.315 x[28,2] - 0.079 x[70,2] - 0.064 x[12,2]
   - 0.068 x[30,2] - 0.046 x[63,2] - 0.454 x[72,2] - 0.094 x[76,2]
   - 0.029 x[102,2] - 0.2 x[38,2] - 0.447 x[118,2] - 0.06 x[97,2]
   - 0.047 x[23,2] - 0.08 x[27,2] - 0.237 x[133,2] - 0.085 x[138,2]
   - 0.071 x[90,2] - 0.019 x[50,2] - 0.156 x[32,2] - 0.014 x[105,2]
   - 0.017 x[57,2] - 0.04 x[10,2] - 0.162 x[31,2] + Sum[2] = 0
 c1_3: - 0.056 x[104,3] - 0.016 x[49,3] - 0.032 x[58,3] - 0.074 x[103,3]
   - 0.078 x[137,3] - 0.191 x[132,3] - 0.107 x[55,3] - 0.015 x[89,3]
   - 0.304 x[140,3] - 0.207 x[113,3] - 0.372 x[101,3] - 0.096 x[53,3]
   - 0.016 x[83,3] - 0.058 x[26,3] - 0.091 x[134,3] - 0.062 x[44,3]
   - 0.244 x[84,3] - 0.221 x[52,3] - 0.365 x[119,3] - 0.074 x[34,3]
   - 0.811 x[45,3] - 0.03 x[130,3] - 0.077 x[127,3] - 0.075 x[35,3]
   - 0.085 x[25,3] - 0.388 x[67,3] - 0.081 x[11,3] - 0.038 x[15,3]
   - 0.037 x[59,3] - 0.047 x[86,3] - 0.069 x[99,3] - 0.877 x[74,3]
   - 0.032 x[65,3] - 0.984 x[14,3] - 0.096 x[85,3] - 0.058 x[87,3]
   - 0.216 x[56,3] - 0.033 x[141,3] - 0.13 x[107,3] - 0.045 x[136,3]
   - 0.063 x[29,3] - 0.015 x[126,3] - 0.073 x[112,3] - 0.061 x[66,3]
   - 0.084 x[125,3] - 0.419 x[9,3] - 0.078 x[68,3] - 0.196 x[91,3]
   - 0.032 x[71,3] - 0.096 x[43,3] - 0.016 x[94,3] - 0.072 x[117,3]
   - 0.229 x[60,3] - 0.04 x[42,3] - 0.015 x[41,3] - 0.096 x[39,3]
   - 0.241 x[77,3] - 0.053 x[78,3] - 0.082 x[98,3] - 0.077 x[69,3]
   - 0.086 x[120,3] - 0.09 x[81,3] - 0.047 x[96,3] - 0.226 x[62,3]
   - 0.016 x[114,3] - 0.629 x[93,3] - 0.048 x[18,3] - 0.115 x[139,3]
   - 0.035 x[19,3] - 0.08 x[115,3] - 0.099 x[110,3] - 0.054 x[37,3]
   - 0.492 x[61,3] - 0.611 x[121,3] - 0.049 x[16,3] - 0.011 x[64,3]
   - 0.099 x[111,3] - 0.063 x[129,3] - 0.013 x[95,3] - 0.099 x[116,3]
   - 0.054 x[17,3] - 0.076 x[21,3] - 0.03 x[92,3] - 0.092 x[36,3]
   - 0.044 x[80,3] - 0.11 x[82,3] - 0.1 x[128,3] - 0.068 x[122,3]
   - 0.054 x[100,3] - 0.38 x[123,3] - 0.106 x[75,3] - 0.067 x[106,3]
   - 0.271 x[51,3] - 0.239 x[88,3] - 0.386 x[109,3] - 0.013 x[142,3]
   - 0.091 x[46,3] - 0.142 x[8,3] - 0.486 x[135,3] - 0.418 x[48,3]
   - 0.01 x[108,3] - 0.164 x[79,3] - 0.251 x[73,3] - 0.093 x[20,3]
   - 0.029 x[54,3] - 0.018 x[131,3] - 0.075 x[124,3] - 0.044 x[47,3]
   - 0.072 x[13,3] - 0.065 x[24,3] - 0.061 x[40,3] - 0.122 x[22,3]
   - 0.064 x[33,3] - 0.315 x[28,3] - 0.079 x[70,3] - 0.064 x[12,3]
   - 0.068 x[30,3] - 0.046 x[63,3] - 0.454 x[72,3] - 0.094 x[76,3]
   - 0.029 x[102,3] - 0.2 x[38,3] - 0.447 x[118,3] - 0.06 x[97,3]
   - 0.047 x[23,3] - 0.08 x[27,3] - 0.237 x[133,3] - 0.085 x[138,3]
   - 0.071 x[90,3] - 0.019 x[50,3] - 0.156 x[32,3] - 0.014 x[105,3]
   - 0.017 x[57,3] - 0.04 x[10,3] - 0.162 x[31,3] + Sum[3] = 0
Bounds
Binaries
 x[104,0] x[104,1] x[104,2] x[104,3] x[49,0] x[49,1] x[49,2] x[49,3]
 x[58,0] x[58,1] x[58,2] x[58,3] x[103,0] x[103,1] x[103,2] x[103,3]
 x[137,0] x[137,1] x[137,2] x[137,3] x[132,0] x[132,1] x[132,2] x[132,3]
 x[55,0] x[55,1] x[55,2] x[55,3] x[89,0] x[89,1] x[89,2] x[89,3] x[140,0]
 x[140,1] x[140,2] x[140,3] x[113,0] x[113,1] x[113,2] x[113,3] x[101,0]
 x[101,1] x[101,2] x[101,3] x[53,0] x[53,1] x[53,2] x[53,3] x[83,0] x[83,1]
 x[83,2] x[83,3] x[26,0] x[26,1] x[26,2] x[26,3] x[134,0] x[134,1] x[134,2]
 x[134,3] x[5,0] x[5,1] x[5,2] x[5,3] x[44,0] x[44,1] x[44,2] x[44,3]
 x[84,0] x[84,1] x[84,2] x[84,3] x[52,0] x[52,1] x[52,2] x[52,3] x[119,0]
 x[119,1] x[119,2] x[119,3] x[34,0] x[34,1] x[34,2] x[34,3] x[45,0] x[45,1]
 x[45,2] x[45,3] x[130,0] x[130,1] x[130,2] x[130,3] x[127,0] x[127,1]
 x[127,2] x[127,3] x[35,0] x[35,1] x[35,2] x[35,3] x[0,0] x[0,1] x[0,2]
 x[0,3] x[25,0] x[25,1] x[25,2] x[25,3] x[67,0] x[67,1] x[67,2] x[67,3]
 x[11,0] x[11,1] x[11,2] x[11,3] x[15,0] x[15,1] x[15,2] x[15,3] x[59,0]
 x[59,1] x[59,2] x[59,3] x[86,0] x[86,1] x[86,2] x[86,3] x[99,0] x[99,1]
 x[99,2] x[99,3] x[74,0] x[74,1] x[74,2] x[74,3] x[65,0] x[65,1] x[65,2]
 x[65,3] x[14,0] x[14,1] x[14,2] x[14,3] x[85,0] x[85,1] x[85,2] x[85,3]
 x[87,0] x[87,1] x[87,2] x[87,3] x[56,0] x[56,1] x[56,2] x[56,3] x[141,0]
 x[141,1] x[141,2] x[141,3] x[4,0] x[4,1] x[4,2] x[4,3] x[107,0] x[107,1]
 x[107,2] x[107,3] x[136,0] x[136,1] x[136,2] x[136,3] x[29,0] x[29,1]
 x[29,2] x[29,3] x[126,0] x[126,1] x[126,2] x[126,3] x[112,0] x[112,1]
 x[112,2] x[112,3] x[66,0] x[66,1] x[66,2] x[66,3] x[125,0] x[125,1]
 x[125,2] x[125,3] x[9,0] x[9,1] x[9,2] x[9,3] x[68,0] x[68,1] x[68,2]
 x[68,3] x[91,0] x[91,1] x[91,2] x[91,3] x[71,0] x[71,1] x[71,2] x[71,3]
 x[43,0] x[43,1] x[43,2] x[43,3] x[94,0] x[94,1] x[94,2] x[94,3] x[117,0]
 x[117,1] x[117,2] x[117,3] x[60,0] x[60,1] x[60,2] x[60,3] x[42,0] x[42,1]
 x[42,2] x[42,3] x[41,0] x[41,1] x[41,2] x[41,3] x[1,0] x[1,1] x[1,2]
 x[1,3] x[39,0] x[39,1] x[39,2] x[39,3] x[77,0] x[77,1] x[77,2] x[77,3]
 x[78,0] x[78,1] x[78,2] x[78,3] x[98,0] x[98,1] x[98,2] x[98,3] x[69,0]
 x[69,1] x[69,2] x[69,3] x[120,0] x[120,1] x[120,2] x[120,3] x[81,0]
 x[81,1] x[81,2] x[81,3] x[96,0] x[96,1] x[96,2] x[96,3] x[62,0] x[62,1]
 x[62,2] x[62,3] x[114,0] x[114,1] x[114,2] x[114,3] x[93,0] x[93,1]
 x[93,2] x[93,3] x[18,0] x[18,1] x[18,2] x[18,3] x[139,0] x[139,1] x[139,2]
 x[139,3] x[19,0] x[19,1] x[19,2] x[19,3] x[115,0] x[115,1] x[115,2]
 x[115,3] x[7,0] x[7,1] x[7,2] x[7,3] x[110,0] x[110,1] x[110,2] x[110,3]
 x[37,0] x[37,1] x[37,2] x[37,3] x[61,0] x[61,1] x[61,2] x[61,3] x[121,0]
 x[121,1] x[121,2] x[121,3] x[16,0] x[16,1] x[16,2] x[16,3] x[64,0] x[64,1]
 x[64,2] x[64,3] x[111,0] x[111,1] x[111,2] x[111,3] x[129,0] x[129,1]
 x[129,2] x[129,3] x[95,0] x[95,1] x[95,2] x[95,3] x[6,0] x[6,1] x[6,2]
 x[6,3] x[116,0] x[116,1] x[116,2] x[116,3] x[17,0] x[17,1] x[17,2] x[17,3]
 x[21,0] x[21,1] x[21,2] x[21,3] x[92,0] x[92,1] x[92,2] x[92,3] x[36,0]
 x[36,1] x[36,2] x[36,3] x[80,0] x[80,1] x[80,2] x[80,3] x[82,0] x[82,1]
 x[82,2] x[82,3] x[128,0] x[128,1] x[128,2] x[128,3] x[122,0] x[122,1]
 x[122,2] x[122,3] x[100,0] x[100,1] x[100,2] x[100,3] x[123,0] x[123,1]
 x[123,2] x[123,3] x[75,0] x[75,1] x[75,2] x[75,3] x[106,0] x[106,1]
 x[106,2] x[106,3] x[51,0] x[51,1] x[51,2] x[51,3] x[88,0] x[88,1] x[88,2]
 x[88,3] x[109,0] x[109,1] x[109,2] x[109,3] x[142,0] x[142,1] x[142,2]
 x[142,3] x[46,0] x[46,1] x[46,2] x[46,3] x[2,0] x[2,1] x[2,2] x[2,3]
 x[8,0] x[8,1] x[8,2] x[8,3] x[135,0] x[135,1] x[135,2] x[135,3] x[48,0]
 x[48,1] x[48,2] x[48,3] x[108,0] x[108,1] x[108,2] x[108,3] x[79,0]
 x[79,1] x[79,2] x[79,3] x[73,0] x[73,1] x[73,2] x[73,3] x[20,0] x[20,1]
 x[20,2] x[20,3] x[54,0] x[54,1] x[54,2] x[54,3] x[131,0] x[131,1] x[131,2]
 x[131,3] x[124,0] x[124,1] x[124,2] x[124,3] x[47,0] x[47,1] x[47,2]
 x[47,3] x[13,0] x[13,1] x[13,2] x[13,3] x[24,0] x[24,1] x[24,2] x[24,3]
 x[40,0] x[40,1] x[40,2] x[40,3] x[22,0] x[22,1] x[22,2] x[22,3] x[33,0]
 x[33,1] x[33,2] x[33,3] x[28,0] x[28,1] x[28,2] x[28,3] x[3,0] x[3,1]
 x[3,2] x[3,3] x[70,0] x[70,1] x[70,2] x[70,3] x[12,0] x[12,1] x[12,2]
 x[12,3] x[30,0] x[30,1] x[30,2] x[30,3] x[63,0] x[63,1] x[63,2] x[63,3]
 x[72,0] x[72,1] x[72,2] x[72,3] x[76,0] x[76,1] x[76,2] x[76,3] x[102,0]
 x[102,1] x[102,2] x[102,3] x[38,0] x[38,1] x[38,2] x[38,3] x[118,0]
 x[118,1] x[118,2] x[118,3] x[97,0] x[97,1] x[97,2] x[97,3] x[23,0] x[23,1]
 x[23,2] x[23,3] x[27,0] x[27,1] x[27,2] x[27,3] x[133,0] x[133,1] x[133,2]
 x[133,3] x[138,0] x[138,1] x[138,2] x[138,3] x[90,0] x[90,1] x[90,2]
 x[90,3] x[50,0] x[50,1] x[50,2] x[50,3] x[32,0] x[32,1] x[32,2] x[32,3]
 x[105,0] x[105,1] x[105,2] x[105,3] x[57,0] x[57,1] x[57,2] x[57,3]
 x[10,0] x[10,1] x[10,2] x[10,3] x[31,0] x[31,1] x[31,2] x[31,3]
End
